N = 9;
H = 6;
T = 2;

avail = array3d(1..N, 1..H, 1..T, [9, 1, 1, 5, 9, 3, 10, 8, 6, 7, 0, 10, 5, 7, 1, 7, 10, 9, 7, 3, 4, 6, 10, 10, 5, 0, 3, 4, 9, 1, 9, 8, 6, 2, 8, 6, 5, 3, 4, 10, 5, 0, 1, 4, 7, 4, 4, 10, 0, 5, 6, 8, 9, 7, 6, 2, 0, 9, 1, 7, 3, 9, 5, 9, 6, 3, 3, 8, 5, 6, 1, 6, 10, 9, 7, 6, 9, 9, 9, 10, 7, 4, 0, 2, 5, 8, 3, 5, 6, 8, 7, 8, 10, 3, 9, 5, 1, 5, 4, 2, 3, 7, 2, 9, 8, 6, 10, 7]);

r = array2d(1..H, 1..T, [2, 4, 2, 1, 0, 2, 3, 1, 3, 2, 2, 1]);
